4
pbc="T T T" Lattice="20 0 0 0 20 0 0 0 20" Properties=species:S:1:pos:R:3:force:R:3 energy=0.82259955302478827 virial="1.7263433851444352 0.16865626411011192 0.67671059487128815 0.168656264065703 0.60346877569505963 -0.060429085346758164 0.67671059502671937 -0.060429085213531401 0.61040617863605817" cg_topology_version=1 cg_bonds="0,1,0;1,2,1;2,3,0" cg_angles="0,1,2,0;1,2,3,0" cg_dihedrals="0,1,2,3,0;0,1,2,3,1"
C 2.0999999046325684 2.2000000476837158 1.8999999761581421 -1.3874050897183525 -0.075916412582175047 -0.3068931799060256
O 3 2 2 1.090600488592409 -0.52947151403947179 0.44401671130163456
C 3.4000000953674316 3.0999999046325684 2.2000000476837158 -0.3014568326540375 0.84176086891010016 -0.89605053431891901
O 4 3.2999999523162842 3 0.59826143377998109 -0.23637294228845324 0.75892700292330995
4
pbc="T T T" Lattice="20 0 0 0 20 0 0 0 20" Properties=species:S:1:pos:R:3:force:R:3 energy=0.89323401275798386 virial="1.6996808011926487 0.15355932224681013 0.46839503959894552 0.15355932229121905 0.44361789472979746 -0.032224646306922011 0.46839503967666113 -0.032224646395739853 0.92419338127980299" cg_topology_version=1 cg_bonds="0,1,0;1,2,1;2,3,0" cg_angles="0,1,2,0;1,2,3,0" cg_dihedrals="0,1,2,3,0;0,1,2,3,1"
C 2.1197707653045654 2.2149055004119873 1.9059338569641113 -1.538882866846955 -0.031557414095284633 0.015385067632355117
O 2.9916245937347412 1.9801023006439209 1.9748570919036865 1.149760953994835 -0.40236469132161717 0.26314738683680572
C 3.4637751579284668 3.1014208793640137 2.1871654987335205 0.039097308559178048 0.59224983172763035 -1.5103522985170628
O 3.9616708755493164 3.3258745670318604 2.9862990379333496 0.35002460429294185 -0.15832772631072861 1.2318198440479016
4
pbc="T T T" Lattice="20 0 0 0 20 0 0 0 20" Properties=species:S:1:pos:R:3:force:R:3 energy=0.77879082162664237 virial="1.7902642426514956 0.28418830293475139 0.7911483444922317 0.28418830305687592 0.67193042770918865 0.014046877949702717 0.79114834452553839 0.014046877938600487 0.43427091895864572" cg_topology_version=1 cg_bonds="0,1,0;1,2,1;2,3,0" cg_angles="0,1,2,0;1,2,3,0" cg_dihedrals="0,1,2,3,0;0,1,2,3,1"
C 2.10263991355896 2.1788411140441895 1.9113059043884277 -1.3509267538294147 -0.17280913126555275 -0.54327247885703267
O 3.0042612552642822 2.0093672275543213 2.0485770702362061 0.9943337517354619 -0.48481585977276859 0.51721299818325384
C 3.329880952835083 3.1101353168487549 2.1923713684082031 -0.33702251760563007 0.7880308419715959 -0.41924748901486197
O 3.9874875545501709 3.2840197086334229 2.9917032718658447 0.69361551969958313 -0.13040585093327464 0.44530696968864081
4
pbc="T T T" Lattice="20 0 0 0 20 0 0 0 20" Properties=species:S:1:pos:R:3:force:R:3 energy=0.87233555993592693 virial="1.7188877190821292 0.20403215061914889 0.69035446659260191 0.2040321505858422 0.70187751031181012 -0.023727787246130557 0.69035446658149968 -0.023727787323846169 0.74540863509442434" cg_topology_version=1 cg_bonds="0,1,0;1,2,1;2,3,0" cg_angles="0,1,2,0;1,2,3,0" cg_dihedrals="0,1,2,3,0;0,1,2,3,1"
C 2.0742840766906738 2.2166252136230469 1.922795295715332 -1.2985510182905056 -0.056850943598523711 -0.19537460042272625
O 2.997394323348999 2.0250029563903809 1.9972797632217407 0.98958381397009332 -0.65695527019718558 0.35456873327688976
C 3.4029521942138672 3.0849134922027588 2.2156026363372803 -0.38168616989550075 0.95506266705076126 -1.1641250145474997
O 3.9746975898742676 3.2664601802825928 2.9774580001831055 0.69065337421591277 -0.24125645325505204 1.004930881693336
4
pbc="T T T" Lattice="20 0 0 0 20 0 0 0 20" Properties=species:S:1:pos:R:3:force:R:3 energy=0.83232693194866336 virial="1.7791022694280121 0.15728946027859791 0.57502016405086565 0.15728946030080238 0.5923902485216459 -0.071253831501749687 0.57502016413968349 -0.071253831479545227 0.4645089215493669" cg_topology_version=1 cg_bonds="0,1,0;1,2,1;2,3,0" cg_angles="0,1,2,0;1,2,3,0" cg_dihedrals="0,1,2,3,0;0,1,2,3,1"
C 2.1297919750213623 2.2020585536956787 1.9230921268463135 -1.5607815901789452 -0.1003355604000966 -0.3007968043712862
O 3.002427339553833 2.021683931350708 1.9993293285369873 1.2530505945287795 -0.4936182886392233 0.41947778603254288
C 3.3772385120391846 3.1322996616363525 2.2022194862365723 -0.16673538051039455 0.8343369838614858 -0.68001495350101426
O 4.0132541656494141 3.3368325233459473 3.0317723751068115 0.47446637616055998 -0.24038313482216589 0.56133397183975753
4
pbc="T T T" Lattice="20 0 0 0 20 0 0 0 20" Properties=species:S:1:pos:R:3:force:R:3 energy=0.85899141931825229 virial="1.7199716049742795 0.096439936136949442 0.5968320667792959 0.09643993605923383 0.64015223355529116 -0.1105139053936277 0.59683206679039813 -0.11051390542693439 0.58084382467127327" cg_topology_version=1 cg_bonds="0,1,0;1,2,1;2,3,0" cg_angles="0,1,2,0;1,2,3,0" cg_dihedrals="0,1,2,3,0;0,1,2,3,1"
C 2.121845006942749 2.2121086120605469 1.8999958038330078 -1.4960415213031419 -0.008683842551774696 -0.2701059131863715
O 3.0002710819244385 2.0201106071472168 1.9937244653701782 1.2470119091615592 -0.65222432248847162 0.48275851341723841
C 3.4239339828491211 3.1014270782470703 2.2126200199127197 -0.24564413656857628 0.97584417769558229 -0.95334433610208535
O 4.0310111045837402 3.3326847553253174 3.0254762172698975 0.49467374871015896 -0.314936012655336 0.74069173587121839
6
pbc="T T T" Lattice="20 0 0 0 20 0 0 0 20" Properties=species:S:1:pos:R:3:force:R:3 energy=0.19863763051963751 virial="0.83040414615986868 -0.40513037385114797 0.24457386310350324 -0.40513037355693887 -0.054776869082284733 0.31987426802604357 0.24457386327281225 0.31987426794277685 0.051298504116781267" cg_topology_version=1 cg_bonds="0,1,0;1,2,1;3,4,1;4,5,0" cg_angles="0,1,2,0;3,4,5,0" cg_dihedrals="none"
C 2 2 2 -0.45063650975187475 0.27789260808730298 0.051378032840220279
O 3.0999999046325684 2.2000000476837158 2.0999999046325684 0.57934342674088346 -0.91347138010117945 -0.2087963442537536
C 3.5 3.2999999523162842 2.4000000953674316 -0.12870691698900874 0.63557877201387636 0.15741831141353332
O 10 10 10 -0.46062190244891615 0.054135703097968772 -0.14910215989498168
C 11.199999809265137 10.100000381469727 10.300000190734863 0.79374067777824475 0.52329883191729354 0.030702577309990532
O 11.699999809265137 11.300000190734863 10 -0.33311877532932854 -0.57743453501526221 0.11839958258499114
6
pbc="T T T" Lattice="20 0 0 0 20 0 0 0 20" Properties=species:S:1:pos:R:3:force:R:3 energy=0.17671237862531552 virial="0.99874332772087449 -0.30623437935473063 0.23182224706541629 -0.30623437938526177 -0.1287431240254433 0.32074784938607159 0.23182224687667838 0.32074784947211388 0.051765330161268601" cg_topology_version=1 cg_bonds="0,1,0;1,2,1;3,4,1;4,5,0" cg_angles="0,1,2,0;3,4,5,0" cg_dihedrals="none"
C 2.0153782367706299 2.050933837890625 2.0260975360870361 -0.63895093344769938 0.19939531430315932 0.03917893380556
O 3.0839064121246338 2.1829657554626465 2.0941267013549805 0.70288526751367864 -0.73787818831669905 -0.19186734883849249
C 3.504469633102417 3.2927815914154053 2.4244024753570557 -0.063934334065979204 0.53848287401353967 0.15268841503293248
O 10.0062255859375 10.008139610290527 9.9825162887573242 -0.39769982196707765 0.038383218537272445 -0.12582009326769208
C 11.226546287536621 10.117871284484863 10.288406372070312 0.69816952372085583 0.53713039542188223 0.0078275348810259351
O 11.700559616088867 11.326915740966797 9.9961357116699219 -0.30046970175377807 -0.57551361395915468 0.11799255838666615
6
pbc="T T T" Lattice="20 0 0 0 20 0 0 0 20" Properties=species:S:1:pos:R:3:force:R:3 energy=0.16216443517973247 virial="0.89435602271537007 -0.43364817093327618 0.24308507019787925 -0.43364817073343603 -0.272207206927777 0.2527478830838259 0.24308507008130584 0.25274788311158147 0.061038293294735084" cg_topology_version=1 cg_bonds="0,1,0;1,2,1;3,4,1;4,5,0" cg_angles="0,1,2,0;3,4,5,0" cg_dihedrals="none"
C 1.974884033203125 2.0287203788757324 2.0323660373687744 -0.5010797353866393 0.22474502187377607 0.05157615117355499
O 3.0722825527191162 2.1582572460174561 2.0870411396026611 0.60982835350947784 -0.63216693823515446 -0.15946533412628008
C 3.5288794040679932 3.3124382495880127 2.4064412117004395 -0.10874861812283851 0.40742191636137848 0.10788918295272509
O 9.99688720703125 10.004754066467285 9.9838542938232422 -0.48312357776213333 0.061739537982922525 -0.16902030106226157
C 11.180423736572266 10.099920272827148 10.311972618103027 0.83056868462899802 0.52487658596526787 0.070495857057901526
O 11.691780090332031 11.305917739868164 10.047467231750488 -0.34744510686686481 -0.5866161239481904 0.098524444004360057
6
pbc="T T T" Lattice="20 0 0 0 20 0 0 0 20" Properties=species:S:1:pos:R:3:force:R:3 energy=0.25948499657615509 virial="0.90092813194719834 -0.46202165755460095 0.28659518699347686 -0.46202165727704519 -0.11667895936096072 0.38285334231225038 0.286595187193317 0.38285334258425502 0.082610938750837803" cg_topology_version=1 cg_bonds="0,1,0;1,2,1;3,4,1;4,5,0" cg_angles="0,1,2,0;3,4,5,0" cg_dihedrals="none"
C 2.0028905868530273 1.9847830533981323 2.0097675323486328 -0.46631741772297125 0.30266690172382454 0.084801030576403758
O 3.0986623764038086 2.2168436050415039 2.0853469371795654 0.61504456738392388 -1.0154777390953909 -0.29141570331720862
C 3.4924008846282959 3.2873048782348633 2.4001140594482422 -0.14872714966095255 0.71281083737156614 0.20661467274080486
O 10.018156051635742 9.9912919998168945 9.9736785888671875 -0.56297379597412955 0.052571756139147267 -0.19667419788875204
C 11.172785758972168 10.083333015441895 10.300447463989258 0.94508089513646953 0.61170702346313133 0.061895456871188616
O 11.700166702270508 11.294631004333496 10.001569747924805 -0.38210709916233987 -0.66427877960227866 0.13477874101756343
6
pbc="T T T" Lattice="20 0 0 0 20 0 0 0 20" Properties=species:S:1:pos:R:3:force:R:3 energy=0.19834657927216912 virial="0.70879769334120091 -0.48061271941124412 0.30935536191878388 -0.48061271903376829 -0.30864212217929232 0.36349078167963172 0.30935536167731037 0.36349078162689613 0.046412833448750128" cg_topology_version=1 cg_bonds="0,1,0;1,2,1;3,4,1;4,5,0" cg_angles="0,1,2,0;3,4,5,0" cg_dihedrals="none"
C 1.9782800674438477 2.0235936641693115 2.0061743259429932 -0.28636425920515818 0.2024864932711419 0.037585809203263376
O 3.1139042377471924 2.1644182205200195 2.1101844310760498 0.33671889798038379 -0.74580098989062504 -0.18032529874835737
C 3.5077853202819824 3.2819790840148926 2.4328110218048096 -0.050354638775225551 0.54331449661948317 0.14273948954509399
O 10.003923416137695 10.01190185546875 10.010750770568848 -0.53741522202603997 0.060939317764442127 -0.17830476903979253
C 11.175238609313965 10.091115951538086 10.317394256591797 0.95411257754699719 0.66402832288046443 0.01799665201509312
O 11.717726707458496 11.308393478393555 10.002965927124023 -0.41669735552095721 -0.7249676406449066 0.16030811702469941
6
pbc="T T T" Lattice="20 0 0 0 20 0 0 0 20" Properties=species:S:1:pos:R:3:force:R:3 energy=0.14734394013806065 virial="0.79820081095860462 -0.31596651338949844 0.22082318352212302 -0.31596651319520941 0.058867992072664237 0.23985681309179882 0.22082318361094086 0.23985681310845217 0.043275922190222353" cg_topology_version=1 cg_bonds="0,1,0;1,2,1;3,4,1;4,5,0" cg_angles="0,1,2,0;3,4,5,0" cg_dihedrals="none"
C 2.0021870136260986 2.0034167766571045 1.9925709962844849 -0.3964646582586635 0.27270482335257012 0.033483467401284141
O 3.1110641956329346 2.2026314735412598 2.1092348098754883 0.54168543954347925 -0.80855450134403872 -0.1410639489068729
C 3.5128331184387207 3.3463382720947266 2.3857767581939697 -0.1452207812848158 0.53584967799146876 0.10758048150558874
O 10.027457237243652 10.017848014831543 9.9914264678955078 -0.43965180992061298 0.026244931181034607 -0.14341455360096064
C 11.227864265441895 10.131805419921875 10.311352729797363 0.67785035224264922 0.39785185878167129 0.051926661644706586
O 11.693214416503906 11.30292797088623 10.000378608703613 -0.23819854232203622 -0.42409678996270594 0.09148789195625405
